experiments/sat_smt/run/sat-r/results/helen.res
solved=true
solvingTime=40.51982879638671875
nActions=11