experiments/sat_smt/run/sat-r/results/helen.out
Timesteps: 1
s UNSATISFIABLE
real 0.17
user 0.02
sys 0.00
Timesteps: 2
s UNSATISFIABLE
real 0.17
user 0.04
sys 0.00
Timesteps: 3
s UNSATISFIABLE
real 0.17
user 0.07
sys 0.00
Timesteps: 4
s UNSATISFIABLE
real 0.36
user 0.21
sys 0.00
Timesteps: 5
s UNSATISFIABLE
real 0.61
user 0.49
sys 0.01
Timesteps: 6
s UNSATISFIABLE
real 1.56
user 1.42
sys 0.01
Timesteps: 7
s UNSATISFIABLE
real 2.39
user 2.21
sys 0.01
Timesteps: 8
s UNSATISFIABLE
real 3.91
user 3.69
sys 0.02
Timesteps: 9
s UNSATISFIABLE
real 6.11
user 5.87
sys 0.02
Timesteps: 10
s UNSATISFIABLE
real 8.54
user 8.27
sys 0.03
Timesteps: 11
s SATISFIABLE
real 16.66
user 15.98
sys 0.04
